NAME : XML100_1256_13
DIMENSION : 101
NB_CLUSTERS : 4
CLUSTERING_ALG : KMeans
CLUSTERING_PARAMS : k(3)
CLUSTERS
1 0
2 6 8 9 17 18 22 25 29 32 36 37 39 40 45 49 50 51 54 57 70 71 90 96 97
3 1 2 3 5 7 10 11 12 14 15 16 19 21 23 24 26 27 28 31 33 34 35 38 41 42 43 44 46 47 48 52 53 55 56 60 61 64 65 68 69 74 75 76 78 79 82 83 84 85 86 87 88 89 91 92 93 95 98 99
4 4 13 20 30 58 59 62 63 66 67 72 73 77 80 81 94 100
EOF